339 338 337 336 335 334 283 284 285 286 287 280 281 282 279 278 277 276 288 289 290 291 292 275 274 273 272 269 268 271 267 270 293 294 295 296 297 321 320 319 317 318 305 306 304 303 302 301 300 299 298 266 265 264 263 262 258 259 261 260 257 256 255 253 254 252 251 250 249 248 241 242 243 244 245 247 246 238 239 240 237 236 235 234 232 233 231 230 229 228 227 189 225 226 190 191 192 193 219 218 220 221 222 224 223 217 216 215 214 213 212 211 210 209 205 206 207 208 203 204 202 201 200 199 198 197 196 195 194 184 183 185 186 182 179 181 180 169 171 170 172 175 174 173 108 109 107 542 541 543 544 545 546 547 103 104 105 106 117 116 115 114 110 111 112 113 161 160 162 168 163 167 166 164 165 154 155 159 156 153 147 148 152 149 150 151 141 142 143 144 146 145 157 158 134 135 136 140 139 138 137 133 132 131 130 129 128 127 126 125 124 69 70 68 67 66 65 72 71 123 122 121 120 118 119 73 74 75 77 76 64 62 63 60 61 79 80 78 88 89 90 87 86 85 84 51 50 52 54 53 83 82 81 59 58 57 56 55 49 48 47 44 43 42 39 41 40 38 37 36 35 34 33 32 30 31 22 23 11 10 9 8 7 6 5 4 3 2 1 0 573 572 571 570 569 568 20 19 18 17 16 15 14 13 12 21 24 25 28 29 27 26 567 566 565 564 563 562 561 560 559 558 557 556 555 45 46 91 92 93 94 95 96 97 98 554 553 552 99 100 102 101 551 550 549 548 478 477 479 480 476 475 482 481 483 484 485 486 487 535 536 537 539 538 540 176 177 178 187 188 534 488 489 533 532 531 530 529 490 491 492 493 524 525 528 527 526 523 522 521 520 518 519 497 496 495 494 472 473 474 471 470 469 468 467 466 465 464 463 462 461 460 459 458 457 456 455 454 439 442 446 447 448 449 450 451 441 440 453 452 499 500 501 498 502 503 504 517 516 515 514 513 512 511 510 509 506 507 508 307 505 308 309 310 311 312 313 316 314 315 377 378 380 379 376 375 374 373 322 323 324 325 326 327 328 329 366 342 365 367 368 369 370 372 371 396 395 394 393 392 391 397 398 399 400 401 402 403 404 405 406 407 408 409 385 384 383 382 386 387 388 389 390 381 431 445 444 443 438 437 436 435 434 433 432 430 429 428 427 426 425 424 423 422 421 420 419 418 417 413 414 416 415 351 352 353 354 355 412 411 410 356 357 360 359 358 349 350 348 347 362 361 363 364 346 345 344 343 341 340 330 331 332 333